\ENCODING=ISO-8859-1
\Problem name: IloCplex

Maximize
 obj: 56.00106 x1 + 90.00129 x2 + 34.00104 x3 + 13.001 x4 + 71.00077 x5
      + 33.00128 x6 + 66.00124 x7 + 74.00128 x8 + 88.00129 x9 + 71.00064 x10
Subject To
 c1: 52 x1 + 52 x2 + 28 x3 + 23 x4 + 95 x5 + 69 x6 + 13 x7 + 61 x8 + 32 x9
     + 68 x10 <= 246
 c2: 88 x1 + 98 x2 + 49 x3 + 28 x4 + 43 x5 + 98 x6 + 53 x7 + 52 x8 + 84 x9
     + 66 x10 <= 329
 c3: 57 x1 + 30 x2 + 86 x3 + 50 x4 + 97 x5 + 96 x6 + 59 x7 + 94 x8 + 67 x9
     + 14 x10 <= 325
 c4: 54 x1 + 64 x2 + 46 x3 + 37 x4 + 31 x5 + 62 x6 + 52 x7 + 33 x8 + 87 x9
     + 35 x10 >= 287
 c5: 52 x1 + 65 x2 + 58 x3 + 63 x4 + 46 x5 + 66 x6 + 72 x7 + 95 x8 + 42 x9
     + 29 x10 >= -100000000
Bounds
 0 <= x1 <= 1
 0 <= x2 <= 1
 0 <= x3 <= 1
 0 <= x4 <= 1
 0 <= x5 <= 1
 0 <= x6 <= 1
 0 <= x7 <= 1
 0 <= x8 <= 1
 0 <= x9 <= 1
 0 <= x10 <= 1
Binaries
 x1  x2  x3  x4  x5  x6  x7  x8  x9  x10 
End
